12 14 47 16 15 11 53 73 7 6 8 46 2 56 50 32 24 74 59 75 58 25 
63 62 67 71 61 68 55 60 4 5 3 1 70 
45 42 39 37 36 44 41 38 40 43 35 72 54 
65 64 19 23 21 48 18 49 22 57 20 66 
69 
33 34 31 29 27 26 28 30 51 52 9 10 13 17 
